; benchmark generated from python API
(set-info :status unknown)
(declare-datatypes ((IntState 0)) (((Mk1 (val1 Int)) (Mk2 (val2 Int)))))
 (declare-fun c_main_~z~0_primed () Int)
(declare-fun c_main_~y~0_primed () Int)
(declare-fun c_main_~x~0_primed () Int)
(declare-fun c_main_~z~0 () Int)
(declare-fun c_main_~y~0 () Int)
(declare-fun c_main_~x~0 () Int)
(declare-fun |c_main_#t~nondet1| () Int)
(declare-fun |c_main_#t~nondet0| () Int)
(declare-fun |c_main_#t~nondet2| () Int)
(assert
 (let (($x58 (exists ((|v_main_#t~nondet2_3_st| IntState) (val!105 Int) )(let (($x112 (not (= |v_main_#t~nondet2_3_st| (Mk1 val!105)))))
 (and $x112 (= (* 4194304 (val2 |v_main_#t~nondet2_3_st|)) c_main_~z~0_primed))))
 ))
 (let (($x194 (exists ((|v_main_#t~nondet1_3_st| IntState) (val!104 Int) )(let (($x112 (not (= |v_main_#t~nondet1_3_st| (Mk1 val!104)))))
 (and $x112 (= c_main_~y~0_primed (* 2097152 (val2 |v_main_#t~nondet1_3_st|))))))
 ))
 (let (($x48 (exists ((|v_main_#t~nondet0_3_st| IntState) (val!103 Int) )(let (($x112 (not (= |v_main_#t~nondet0_3_st| (Mk1 val!103)))))
 (and $x112 (= (* 1048576 (val2 |v_main_#t~nondet0_3_st|)) c_main_~x~0_primed))))
 ))
 (let (($x178 (exists ((|v_main_#t~nondet2_3| Int) )(let ((?x176 (* 4194304 |v_main_#t~nondet2_3|)))
 (= ?x176 c_main_~z~0)))
 ))
 (let (($x226 (exists ((|v_main_#t~nondet1_3| Int) )(let ((?x225 (* 2097152 |v_main_#t~nondet1_3|)))
 (= c_main_~y~0 ?x225)))
 ))
 (let (($x162 (exists ((|v_main_#t~nondet0_3| Int) )(let ((?x161 (* 1048576 |v_main_#t~nondet0_3|)))
 (= ?x161 c_main_~x~0)))
 ))
 (let (($x240 (and (= c_main_~z~0_primed (+ (* 4194304 |c_main_#t~nondet2|) c_main_~z~0)) (= c_main_~x~0_primed (+ (* 1048576 |c_main_#t~nondet0|) c_main_~x~0)) (= c_main_~y~0_primed (+ (* 2097152 |c_main_#t~nondet1|) c_main_~y~0)))))
 (and $x240 (and $x162 $x226 $x178) (not (and $x48 $x194 $x58)))))))))))
(check-sat)
